67
23
0 23 25 27 29 30 32 33 35 37 38 39 40 41 42 47 48 51 57 58 59 61 63
1 23 25 27 29 30 31 33 35 37 38 40 41 42 43 44 47 50 51 54 57 58 59 66
2 23 24 25 27 29 30 35 37 38 40 41 42 43 44 47 48 51 56 57 58 60 61
3 23 24 27 29 30 33 35 36 37 39 41 42 43 47 48 51 53 54 56 57 58 61
4 23 24 25 27 29 30 32 33 34 35 37 39 40 42 43 44 47 48 50 51 55 56 57 58 59 61
5 25 27 29 30 31 33 34 35 41 42 43 46 49 51 53 54 55 57 59 64
6 23 25 27 28 29 30 31 34 35 36 37 40 42 43 44 47 48 49 53 55 57 64
7 23 25 29 30 32 33 35 36 39 43 44 46 47 49 51 54 61 62
8 23 24 25 27 29 30 31 33 35 36 37 40 43 44 47 48 50 51 53 57 58 59 61
9 30 31 33 36 37 39 42 43 44 47 48 49 50 51 53 54 55 56 64
10 29 30 31 33 38 39 40 44 54 55 57 61
11 24 25 27 29 32 33 35 36 37 38 40 41 42 46 47 48 49 54 58 59 61
12 23 24 31 34 37 39 41 45 49 50 51 54 56 58 61 64
13 26 27 28 31 36 37 40 41 53 56
14 23 24 25 31 32 35 36 38 41 44 48 52 53 55
15 25 27 33 34 36 37 40 47 51 64 65 66
16 27 30 36 39 42 44 46 48 49 54 65 66
17 23 24 31 32 33 38 39 42 45 50 56
18 29 30 32 38 43 44 46 47 50 55
19 25 30 35 39 53 58 61 64
20 27 46 48 49 51 52 63 64
21 25 34 40 41 48 52 57 65 66
22 45 56 59
